90 90
19 21
24 9
10 12
12 80
45 64
1 29
31 52
36 87
8 18
4 90
11 81
43 5
17 61
30 50
42 43
25 73
2 75
40 60
45 26
29 31
43 24
34 22
44 23
25 39
37 6
16 11
5 74
19 38
41 32
17 3
6 25
44 4
26 71
15 34
39 53
5 37
30 41
3 69
27 13
12 20
21 76
28 10
32 33
7 15
20 1
11 84
1 19
31 89
9 58
22 2
42 27
26 72
22 16
34 59
39 30
21 47
38 68
15 82
35 77
35 78
38 44
14 66
13 7
20 85
24 8
18 79
28 83
7 86
37 17
14 67
23 65
6 70
8 14
3 54
36 45
23 36
10 55
13 88
33 63
40 42
2 62
27 56
18 35
29 46
32 40
4 57
33 51
41 48
16 28
9 49
